
Gurobi 9.0.3 (mac64) logging started Fri Oct 30 16:13:48 2020

Gurobi Optimizer version 9.0.3 build v9.0.3rc0 (mac64)
Optimize a model with 23295 rows, 17020 columns and 84190 nonzeros
Model fingerprint: 0x060c9f65
Coefficient statistics:
  Matrix range     [1e+00, 9e+02]
  Objective range  [1e+00, 1e+00]
  Bounds range     [1e+00, 1e+00]
  RHS range        [1e+00, 3e+00]

Concurrent LP optimizer: dual simplex and barrier
Showing barrier log only...

Presolve removed 141 rows and 10 columns
Presolve time: 0.12s
Presolved: 23154 rows, 17010 columns, 83114 nonzeros

Ordering time: 0.09s

Barrier statistics:
 AA' NZ     : 3.340e+05
 Factor NZ  : 1.134e+06 (roughly 26 MBytes of memory)
 Factor Ops : 1.322e+08 (less than 1 second per iteration)
 Threads    : 1

                  Objective                Residual
Iter       Primal          Dual         Primal    Dual     Compl     Time
   0   3.37417912e+05 -1.02598974e+05  3.37e+05 1.59e-01  2.29e+02     0s
   1   1.86153669e+05 -1.12170107e+05  1.72e+05 3.89e-01  1.42e+02     1s
   2   1.37329086e+05 -1.65962446e+05  1.23e+05 9.21e-02  7.44e+01     1s
   3   5.27172995e+04 -1.82984197e+05  4.49e+04 3.75e-03  2.45e+01     1s
   4   1.91144072e+04 -1.25517619e+05  1.39e+04 1.05e-13  7.63e+00     1s
   5   1.51741340e+04 -2.87662532e+04  1.04e+04 2.84e-14  2.90e+00     1s
   6   7.23616855e+03 -1.17282391e+04  3.82e+03 4.99e-10  9.56e-01     1s
   7   2.06993305e+03 -5.09734466e+03  7.26e+02 3.71e-11  2.75e-01     1s
   8   8.48546265e+02 -1.24802490e+03  5.19e+01 2.34e-12  4.83e-02     1s
   9   6.79118730e+02 -4.73123327e+02  2.32e+01 9.82e-13  2.56e-02     1s
  10   4.69534179e+02 -5.28675053e+01  1.39e+01 1.42e-13  1.14e-02     1s
  11   3.59623469e+02  3.90186521e+01  9.62e+00 4.55e-14  6.98e-03     1s
  12   3.23626071e+02  1.24158342e+02  7.00e+00 1.69e-14  4.32e-03     2s
  13   2.94153500e+02  1.62356691e+02  4.86e+00 1.01e-14  2.84e-03     2s
  14   2.79882012e+02  1.89861376e+02  3.51e+00 6.42e-15  1.93e-03     2s
  15   2.68009464e+02  2.13343461e+02  2.33e+00 3.39e-15  1.17e-03     2s
  16   2.59150590e+02  2.31069753e+02  1.39e+00 1.33e-15  5.95e-04     2s
  17   2.53556712e+02  2.39072407e+02  8.46e-01 6.66e-16  3.04e-04     2s
  18   2.49067015e+02  2.42698126e+02  4.19e-01 5.55e-16  1.33e-04     2s
  19   2.46258222e+02  2.43808381e+02  1.49e-01 6.66e-16  5.12e-05     2s
  20   2.45460406e+02  2.44189661e+02  8.50e-02 5.55e-16  2.64e-05     2s
  21   2.44855767e+02  2.44250129e+02  3.68e-02 4.44e-16  1.27e-05     2s
  22   2.44670339e+02  2.44300935e+02  2.22e-02 6.66e-16  7.72e-06     3s
  23   2.44494788e+02  2.44323344e+02  8.54e-03 6.66e-16  3.62e-06     3s
  24   2.44438364e+02  2.44364722e+02  4.33e-03 7.77e-16  1.54e-06     3s
  25   2.44394919e+02  2.44375148e+02  1.14e-03 3.62e-11  4.14e-07     3s
  26   2.44382845e+02  2.44377035e+02  2.94e-04 4.34e-11  1.22e-07     3s
  27   2.44378770e+02  2.44378075e+02  2.31e-05 5.84e-11  1.48e-08     3s
  28   2.44378353e+02  2.44378340e+02  2.32e-07 1.83e-12  2.77e-10     3s
  29   2.44378347e+02  2.44378347e+02  6.66e-10 2.39e-14  2.96e-13     3s

Barrier solved model in 29 iterations and 3.21 seconds
Optimal objective 2.44378347e+02

Crossover log...

       0 DPushes remaining with DInf 0.0000000e+00                 3s

    6430 PPushes remaining with PInf 4.8581672e-05                 3s
       0 PPushes remaining with PInf 0.0000000e+00                 4s

  Push phase complete: Pinf 0.0000000e+00, Dinf 1.3787416e-02      4s

Iteration    Objective       Primal Inf.    Dual Inf.      Time
   12295    2.4437835e+02   0.000000e+00   1.378742e-02      4s
   12316    2.4437835e+02   0.000000e+00   0.000000e+00      4s

Solved with barrier
Solved in 12316 iterations and 3.88 seconds
Optimal objective  2.443783472e+02
